(set-logic ALL)
(declare-const cmd String)
(assert (not (str.contains cmd "--extract")))
(assert (not (< (str.len cmd) 0)))
(assert (not (= (+ 0 (str.indexof cmd " " 0)) (- 1))))
(assert (not (< (+ 0 (str.indexof cmd " " 0)) 0)))
(assert (not (< (+ (+ 0 (str.indexof cmd " " 0)) 1) 0)))
(assert (not (< (str.len cmd) 0)))
(assert (not (< (str.len (str.substr cmd (+ (+ 0 (str.indexof cmd " " 0)) 1) (- (str.len cmd) (+ (+ 0 (str.indexof cmd " " 0)) 1)))) 0)))
(assert (not (= (+ 0 (str.indexof (str.substr cmd (+ (+ 0 (str.indexof cmd " " 0)) 1) (- (str.len cmd) (+ (+ 0 (str.indexof cmd " " 0)) 1))) " " 0)) (- 1))))
(assert (not (< (+ 0 (str.indexof (str.substr cmd (+ (+ 0 (str.indexof cmd " " 0)) 1) (- (str.len cmd) (+ (+ 0 (str.indexof cmd " " 0)) 1))) " " 0)) 0)))
(assert (not (< (+ (+ 0 (str.indexof (str.substr cmd (+ (+ 0 (str.indexof cmd " " 0)) 1) (- (str.len cmd) (+ (+ 0 (str.indexof cmd " " 0)) 1))) " " 0)) 1) 0)))
(assert (not (< (str.len (str.substr cmd (+ (+ 0 (str.indexof cmd " " 0)) 1) (- (str.len cmd) (+ (+ 0 (str.indexof cmd " " 0)) 1)))) 0)))
(assert (not (< (str.len (str.substr (str.substr cmd (+ (+ 0 (str.indexof cmd " " 0)) 1) (- (str.len cmd) (+ (+ 0 (str.indexof cmd " " 0)) 1))) (+ (+ 0 (str.indexof (str.substr cmd (+ (+ 0 (str.indexof cmd " " 0)) 1) (- (str.len cmd) (+ (+ 0 (str.indexof cmd " " 0)) 1))) " " 0)) 1) (- (str.len (str.substr cmd (+ (+ 0 (str.indexof cmd " " 0)) 1) (- (str.len cmd) (+ (+ 0 (str.indexof cmd " " 0)) 1)))) (+ (+ 0 (str.indexof (str.substr cmd (+ (+ 0 (str.indexof cmd " " 0)) 1) (- (str.len cmd) (+ (+ 0 (str.indexof cmd " " 0)) 1))) " " 0)) 1)))) 0)))
(assert (not (= (+ 0 (str.indexof (str.substr (str.substr cmd (+ (+ 0 (str.indexof cmd " " 0)) 1) (- (str.len cmd) (+ (+ 0 (str.indexof cmd " " 0)) 1))) (+ (+ 0 (str.indexof (str.substr cmd (+ (+ 0 (str.indexof cmd " " 0)) 1) (- (str.len cmd) (+ (+ 0 (str.indexof cmd " " 0)) 1))) " " 0)) 1) (- (str.len (str.substr cmd (+ (+ 0 (str.indexof cmd " " 0)) 1) (- (str.len cmd) (+ (+ 0 (str.indexof cmd " " 0)) 1)))) (+ (+ 0 (str.indexof (str.substr cmd (+ (+ 0 (str.indexof cmd " " 0)) 1) (- (str.len cmd) (+ (+ 0 (str.indexof cmd " " 0)) 1))) " " 0)) 1))) " " 0)) (- 1))))
(assert (not (< (+ 0 (str.indexof (str.substr (str.substr cmd (+ (+ 0 (str.indexof cmd " " 0)) 1) (- (str.len cmd) (+ (+ 0 (str.indexof cmd " " 0)) 1))) (+ (+ 0 (str.indexof (str.substr cmd (+ (+ 0 (str.indexof cmd " " 0)) 1) (- (str.len cmd) (+ (+ 0 (str.indexof cmd " " 0)) 1))) " " 0)) 1) (- (str.len (str.substr cmd (+ (+ 0 (str.indexof cmd " " 0)) 1) (- (str.len cmd) (+ (+ 0 (str.indexof cmd " " 0)) 1)))) (+ (+ 0 (str.indexof (str.substr cmd (+ (+ 0 (str.indexof cmd " " 0)) 1) (- (str.len cmd) (+ (+ 0 (str.indexof cmd " " 0)) 1))) " " 0)) 1))) " " 0)) 0)))
(assert (not (< (+ (+ 0 (str.indexof (str.substr (str.substr cmd (+ (+ 0 (str.indexof cmd " " 0)) 1) (- (str.len cmd) (+ (+ 0 (str.indexof cmd " " 0)) 1))) (+ (+ 0 (str.indexof (str.substr cmd (+ (+ 0 (str.indexof cmd " " 0)) 1) (- (str.len cmd) (+ (+ 0 (str.indexof cmd " " 0)) 1))) " " 0)) 1) (- (str.len (str.substr cmd (+ (+ 0 (str.indexof cmd " " 0)) 1) (- (str.len cmd) (+ (+ 0 (str.indexof cmd " " 0)) 1)))) (+ (+ 0 (str.indexof (str.substr cmd (+ (+ 0 (str.indexof cmd " " 0)) 1) (- (str.len cmd) (+ (+ 0 (str.indexof cmd " " 0)) 1))) " " 0)) 1))) " " 0)) 1) 0)))
(assert (not (< (str.len (str.substr (str.substr cmd (+ (+ 0 (str.indexof cmd " " 0)) 1) (- (str.len cmd) (+ (+ 0 (str.indexof cmd " " 0)) 1))) (+ (+ 0 (str.indexof (str.substr cmd (+ (+ 0 (str.indexof cmd " " 0)) 1) (- (str.len cmd) (+ (+ 0 (str.indexof cmd " " 0)) 1))) " " 0)) 1) (- (str.len (str.substr cmd (+ (+ 0 (str.indexof cmd " " 0)) 1) (- (str.len cmd) (+ (+ 0 (str.indexof cmd " " 0)) 1)))) (+ (+ 0 (str.indexof (str.substr cmd (+ (+ 0 (str.indexof cmd " " 0)) 1) (- (str.len cmd) (+ (+ 0 (str.indexof cmd " " 0)) 1))) " " 0)) 1)))) 0)))
(assert (not (< (str.len (str.substr (str.substr (str.substr cmd (+ (+ 0 (str.indexof cmd " " 0)) 1) (- (str.len cmd) (+ (+ 0 (str.indexof cmd " " 0)) 1))) (+ (+ 0 (str.indexof (str.substr cmd (+ (+ 0 (str.indexof cmd " " 0)) 1) (- (str.len cmd) (+ (+ 0 (str.indexof cmd " " 0)) 1))) " " 0)) 1) (- (str.len (str.substr cmd (+ (+ 0 (str.indexof cmd " " 0)) 1) (- (str.len cmd) (+ (+ 0 (str.indexof cmd " " 0)) 1)))) (+ (+ 0 (str.indexof (str.substr cmd (+ (+ 0 (str.indexof cmd " " 0)) 1) (- (str.len cmd) (+ (+ 0 (str.indexof cmd " " 0)) 1))) " " 0)) 1))) (+ (+ 0 (str.indexof (str.substr (str.substr cmd (+ (+ 0 (str.indexof cmd " " 0)) 1) (- (str.len cmd) (+ (+ 0 (str.indexof cmd " " 0)) 1))) (+ (+ 0 (str.indexof (str.substr cmd (+ (+ 0 (str.indexof cmd " " 0)) 1) (- (str.len cmd) (+ (+ 0 (str.indexof cmd " " 0)) 1))) " " 0)) 1) (- (str.len (str.substr cmd (+ (+ 0 (str.indexof cmd " " 0)) 1) (- (str.len cmd) (+ (+ 0 (str.indexof cmd " " 0)) 1)))) (+ (+ 0 (str.indexof (str.substr cmd (+ (+ 0 (str.indexof cmd " " 0)) 1) (- (str.len cmd) (+ (+ 0 (str.indexof cmd " " 0)) 1))) " " 0)) 1))) " " 0)) 1) (- (str.len (str.substr (str.substr cmd (+ (+ 0 (str.indexof cmd " " 0)) 1) (- (str.len cmd) (+ (+ 0 (str.indexof cmd " " 0)) 1))) (+ (+ 0 (str.indexof (str.substr cmd (+ (+ 0 (str.indexof cmd " " 0)) 1) (- (str.len cmd) (+ (+ 0 (str.indexof cmd " " 0)) 1))) " " 0)) 1) (- (str.len (str.substr cmd (+ (+ 0 (str.indexof cmd " " 0)) 1) (- (str.len cmd) (+ (+ 0 (str.indexof cmd " " 0)) 1)))) (+ (+ 0 (str.indexof (str.substr cmd (+ (+ 0 (str.indexof cmd " " 0)) 1) (- (str.len cmd) (+ (+ 0 (str.indexof cmd " " 0)) 1))) " " 0)) 1)))) (+ (+ 0 (str.indexof (str.substr (str.substr cmd (+ (+ 0 (str.indexof cmd " " 0)) 1) (- (str.len cmd) (+ (+ 0 (str.indexof cmd " " 0)) 1))) (+ (+ 0 (str.indexof (str.substr cmd (+ (+ 0 (str.indexof cmd " " 0)) 1) (- (str.len cmd) (+ (+ 0 (str.indexof cmd " " 0)) 1))) " " 0)) 1) (- (str.len (str.substr cmd (+ (+ 0 (str.indexof cmd " " 0)) 1) (- (str.len cmd) (+ (+ 0 (str.indexof cmd " " 0)) 1)))) (+ (+ 0 (str.indexof (str.substr cmd (+ (+ 0 (str.indexof cmd " " 0)) 1) (- (str.len cmd) (+ (+ 0 (str.indexof cmd " " 0)) 1))) " " 0)) 1))) " " 0)) 1)))) 0)))
(assert (not (= (+ 0 (str.indexof (str.substr (str.substr (str.substr cmd (+ (+ 0 (str.indexof cmd " " 0)) 1) (- (str.len cmd) (+ (+ 0 (str.indexof cmd " " 0)) 1))) (+ (+ 0 (str.indexof (str.substr cmd (+ (+ 0 (str.indexof cmd " " 0)) 1) (- (str.len cmd) (+ (+ 0 (str.indexof cmd " " 0)) 1))) " " 0)) 1) (- (str.len (str.substr cmd (+ (+ 0 (str.indexof cmd " " 0)) 1) (- (str.len cmd) (+ (+ 0 (str.indexof cmd " " 0)) 1)))) (+ (+ 0 (str.indexof (str.substr cmd (+ (+ 0 (str.indexof cmd " " 0)) 1) (- (str.len cmd) (+ (+ 0 (str.indexof cmd " " 0)) 1))) " " 0)) 1))) (+ (+ 0 (str.indexof (str.substr (str.substr cmd (+ (+ 0 (str.indexof cmd " " 0)) 1) (- (str.len cmd) (+ (+ 0 (str.indexof cmd " " 0)) 1))) (+ (+ 0 (str.indexof (str.substr cmd (+ (+ 0 (str.indexof cmd " " 0)) 1) (- (str.len cmd) (+ (+ 0 (str.indexof cmd " " 0)) 1))) " " 0)) 1) (- (str.len (str.substr cmd (+ (+ 0 (str.indexof cmd " " 0)) 1) (- (str.len cmd) (+ (+ 0 (str.indexof cmd " " 0)) 1)))) (+ (+ 0 (str.indexof (str.substr cmd (+ (+ 0 (str.indexof cmd " " 0)) 1) (- (str.len cmd) (+ (+ 0 (str.indexof cmd " " 0)) 1))) " " 0)) 1))) " " 0)) 1) (- (str.len (str.substr (str.substr cmd (+ (+ 0 (str.indexof cmd " " 0)) 1) (- (str.len cmd) (+ (+ 0 (str.indexof cmd " " 0)) 1))) (+ (+ 0 (str.indexof (str.substr cmd (+ (+ 0 (str.indexof cmd " " 0)) 1) (- (str.len cmd) (+ (+ 0 (str.indexof cmd " " 0)) 1))) " " 0)) 1) (- (str.len (str.substr cmd (+ (+ 0 (str.indexof cmd " " 0)) 1) (- (str.len cmd) (+ (+ 0 (str.indexof cmd " " 0)) 1)))) (+ (+ 0 (str.indexof (str.substr cmd (+ (+ 0 (str.indexof cmd " " 0)) 1) (- (str.len cmd) (+ (+ 0 (str.indexof cmd " " 0)) 1))) " " 0)) 1)))) (+ (+ 0 (str.indexof (str.substr (str.substr cmd (+ (+ 0 (str.indexof cmd " " 0)) 1) (- (str.len cmd) (+ (+ 0 (str.indexof cmd " " 0)) 1))) (+ (+ 0 (str.indexof (str.substr cmd (+ (+ 0 (str.indexof cmd " " 0)) 1) (- (str.len cmd) (+ (+ 0 (str.indexof cmd " " 0)) 1))) " " 0)) 1) (- (str.len (str.substr cmd (+ (+ 0 (str.indexof cmd " " 0)) 1) (- (str.len cmd) (+ (+ 0 (str.indexof cmd " " 0)) 1)))) (+ (+ 0 (str.indexof (str.substr cmd (+ (+ 0 (str.indexof cmd " " 0)) 1) (- (str.len cmd) (+ (+ 0 (str.indexof cmd " " 0)) 1))) " " 0)) 1))) " " 0)) 1))) " " 0)) (- 1))))
(assert (not (< (+ 0 (str.indexof (str.substr (str.substr (str.substr cmd (+ (+ 0 (str.indexof cmd " " 0)) 1) (- (str.len cmd) (+ (+ 0 (str.indexof cmd " " 0)) 1))) (+ (+ 0 (str.indexof (str.substr cmd (+ (+ 0 (str.indexof cmd " " 0)) 1) (- (str.len cmd) (+ (+ 0 (str.indexof cmd " " 0)) 1))) " " 0)) 1) (- (str.len (str.substr cmd (+ (+ 0 (str.indexof cmd " " 0)) 1) (- (str.len cmd) (+ (+ 0 (str.indexof cmd " " 0)) 1)))) (+ (+ 0 (str.indexof (str.substr cmd (+ (+ 0 (str.indexof cmd " " 0)) 1) (- (str.len cmd) (+ (+ 0 (str.indexof cmd " " 0)) 1))) " " 0)) 1))) (+ (+ 0 (str.indexof (str.substr (str.substr cmd (+ (+ 0 (str.indexof cmd " " 0)) 1) (- (str.len cmd) (+ (+ 0 (str.indexof cmd " " 0)) 1))) (+ (+ 0 (str.indexof (str.substr cmd (+ (+ 0 (str.indexof cmd " " 0)) 1) (- (str.len cmd) (+ (+ 0 (str.indexof cmd " " 0)) 1))) " " 0)) 1) (- (str.len (str.substr cmd (+ (+ 0 (str.indexof cmd " " 0)) 1) (- (str.len cmd) (+ (+ 0 (str.indexof cmd " " 0)) 1)))) (+ (+ 0 (str.indexof (str.substr cmd (+ (+ 0 (str.indexof cmd " " 0)) 1) (- (str.len cmd) (+ (+ 0 (str.indexof cmd " " 0)) 1))) " " 0)) 1))) " " 0)) 1) (- (str.len (str.substr (str.substr cmd (+ (+ 0 (str.indexof cmd " " 0)) 1) (- (str.len cmd) (+ (+ 0 (str.indexof cmd " " 0)) 1))) (+ (+ 0 (str.indexof (str.substr cmd (+ (+ 0 (str.indexof cmd " " 0)) 1) (- (str.len cmd) (+ (+ 0 (str.indexof cmd " " 0)) 1))) " " 0)) 1) (- (str.len (str.substr cmd (+ (+ 0 (str.indexof cmd " " 0)) 1) (- (str.len cmd) (+ (+ 0 (str.indexof cmd " " 0)) 1)))) (+ (+ 0 (str.indexof (str.substr cmd (+ (+ 0 (str.indexof cmd " " 0)) 1) (- (str.len cmd) (+ (+ 0 (str.indexof cmd " " 0)) 1))) " " 0)) 1)))) (+ (+ 0 (str.indexof (str.substr (str.substr cmd (+ (+ 0 (str.indexof cmd " " 0)) 1) (- (str.len cmd) (+ (+ 0 (str.indexof cmd " " 0)) 1))) (+ (+ 0 (str.indexof (str.substr cmd (+ (+ 0 (str.indexof cmd " " 0)) 1) (- (str.len cmd) (+ (+ 0 (str.indexof cmd " " 0)) 1))) " " 0)) 1) (- (str.len (str.substr cmd (+ (+ 0 (str.indexof cmd " " 0)) 1) (- (str.len cmd) (+ (+ 0 (str.indexof cmd " " 0)) 1)))) (+ (+ 0 (str.indexof (str.substr cmd (+ (+ 0 (str.indexof cmd " " 0)) 1) (- (str.len cmd) (+ (+ 0 (str.indexof cmd " " 0)) 1))) " " 0)) 1))) " " 0)) 1))) " " 0)) 0)))
(assert (not (< (+ (+ 0 (str.indexof (str.substr (str.substr (str.substr cmd (+ (+ 0 (str.indexof cmd " " 0)) 1) (- (str.len cmd) (+ (+ 0 (str.indexof cmd " " 0)) 1))) (+ (+ 0 (str.indexof (str.substr cmd (+ (+ 0 (str.indexof cmd " " 0)) 1) (- (str.len cmd) (+ (+ 0 (str.indexof cmd " " 0)) 1))) " " 0)) 1) (- (str.len (str.substr cmd (+ (+ 0 (str.indexof cmd " " 0)) 1) (- (str.len cmd) (+ (+ 0 (str.indexof cmd " " 0)) 1)))) (+ (+ 0 (str.indexof (str.substr cmd (+ (+ 0 (str.indexof cmd " " 0)) 1) (- (str.len cmd) (+ (+ 0 (str.indexof cmd " " 0)) 1))) " " 0)) 1))) (+ (+ 0 (str.indexof (str.substr (str.substr cmd (+ (+ 0 (str.indexof cmd " " 0)) 1) (- (str.len cmd) (+ (+ 0 (str.indexof cmd " " 0)) 1))) (+ (+ 0 (str.indexof (str.substr cmd (+ (+ 0 (str.indexof cmd " " 0)) 1) (- (str.len cmd) (+ (+ 0 (str.indexof cmd " " 0)) 1))) " " 0)) 1) (- (str.len (str.substr cmd (+ (+ 0 (str.indexof cmd " " 0)) 1) (- (str.len cmd) (+ (+ 0 (str.indexof cmd " " 0)) 1)))) (+ (+ 0 (str.indexof (str.substr cmd (+ (+ 0 (str.indexof cmd " " 0)) 1) (- (str.len cmd) (+ (+ 0 (str.indexof cmd " " 0)) 1))) " " 0)) 1))) " " 0)) 1) (- (str.len (str.substr (str.substr cmd (+ (+ 0 (str.indexof cmd " " 0)) 1) (- (str.len cmd) (+ (+ 0 (str.indexof cmd " " 0)) 1))) (+ (+ 0 (str.indexof (str.substr cmd (+ (+ 0 (str.indexof cmd " " 0)) 1) (- (str.len cmd) (+ (+ 0 (str.indexof cmd " " 0)) 1))) " " 0)) 1) (- (str.len (str.substr cmd (+ (+ 0 (str.indexof cmd " " 0)) 1) (- (str.len cmd) (+ (+ 0 (str.indexof cmd " " 0)) 1)))) (+ (+ 0 (str.indexof (str.substr cmd (+ (+ 0 (str.indexof cmd " " 0)) 1) (- (str.len cmd) (+ (+ 0 (str.indexof cmd " " 0)) 1))) " " 0)) 1)))) (+ (+ 0 (str.indexof (str.substr (str.substr cmd (+ (+ 0 (str.indexof cmd " " 0)) 1) (- (str.len cmd) (+ (+ 0 (str.indexof cmd " " 0)) 1))) (+ (+ 0 (str.indexof (str.substr cmd (+ (+ 0 (str.indexof cmd " " 0)) 1) (- (str.len cmd) (+ (+ 0 (str.indexof cmd " " 0)) 1))) " " 0)) 1) (- (str.len (str.substr cmd (+ (+ 0 (str.indexof cmd " " 0)) 1) (- (str.len cmd) (+ (+ 0 (str.indexof cmd " " 0)) 1)))) (+ (+ 0 (str.indexof (str.substr cmd (+ (+ 0 (str.indexof cmd " " 0)) 1) (- (str.len cmd) (+ (+ 0 (str.indexof cmd " " 0)) 1))) " " 0)) 1))) " " 0)) 1))) " " 0)) 1) 0)))
(assert (< (str.len (str.substr (str.substr (str.substr cmd (+ (+ 0 (str.indexof cmd " " 0)) 1) (- (str.len cmd) (+ (+ 0 (str.indexof cmd " " 0)) 1))) (+ (+ 0 (str.indexof (str.substr cmd (+ (+ 0 (str.indexof cmd " " 0)) 1) (- (str.len cmd) (+ (+ 0 (str.indexof cmd " " 0)) 1))) " " 0)) 1) (- (str.len (str.substr cmd (+ (+ 0 (str.indexof cmd " " 0)) 1) (- (str.len cmd) (+ (+ 0 (str.indexof cmd " " 0)) 1)))) (+ (+ 0 (str.indexof (str.substr cmd (+ (+ 0 (str.indexof cmd " " 0)) 1) (- (str.len cmd) (+ (+ 0 (str.indexof cmd " " 0)) 1))) " " 0)) 1))) (+ (+ 0 (str.indexof (str.substr (str.substr cmd (+ (+ 0 (str.indexof cmd " " 0)) 1) (- (str.len cmd) (+ (+ 0 (str.indexof cmd " " 0)) 1))) (+ (+ 0 (str.indexof (str.substr cmd (+ (+ 0 (str.indexof cmd " " 0)) 1) (- (str.len cmd) (+ (+ 0 (str.indexof cmd " " 0)) 1))) " " 0)) 1) (- (str.len (str.substr cmd (+ (+ 0 (str.indexof cmd " " 0)) 1) (- (str.len cmd) (+ (+ 0 (str.indexof cmd " " 0)) 1)))) (+ (+ 0 (str.indexof (str.substr cmd (+ (+ 0 (str.indexof cmd " " 0)) 1) (- (str.len cmd) (+ (+ 0 (str.indexof cmd " " 0)) 1))) " " 0)) 1))) " " 0)) 1) (- (str.len (str.substr (str.substr cmd (+ (+ 0 (str.indexof cmd " " 0)) 1) (- (str.len cmd) (+ (+ 0 (str.indexof cmd " " 0)) 1))) (+ (+ 0 (str.indexof (str.substr cmd (+ (+ 0 (str.indexof cmd " " 0)) 1) (- (str.len cmd) (+ (+ 0 (str.indexof cmd " " 0)) 1))) " " 0)) 1) (- (str.len (str.substr cmd (+ (+ 0 (str.indexof cmd " " 0)) 1) (- (str.len cmd) (+ (+ 0 (str.indexof cmd " " 0)) 1)))) (+ (+ 0 (str.indexof (str.substr cmd (+ (+ 0 (str.indexof cmd " " 0)) 1) (- (str.len cmd) (+ (+ 0 (str.indexof cmd " " 0)) 1))) " " 0)) 1)))) (+ (+ 0 (str.indexof (str.substr (str.substr cmd (+ (+ 0 (str.indexof cmd " " 0)) 1) (- (str.len cmd) (+ (+ 0 (str.indexof cmd " " 0)) 1))) (+ (+ 0 (str.indexof (str.substr cmd (+ (+ 0 (str.indexof cmd " " 0)) 1) (- (str.len cmd) (+ (+ 0 (str.indexof cmd " " 0)) 1))) " " 0)) 1) (- (str.len (str.substr cmd (+ (+ 0 (str.indexof cmd " " 0)) 1) (- (str.len cmd) (+ (+ 0 (str.indexof cmd " " 0)) 1)))) (+ (+ 0 (str.indexof (str.substr cmd (+ (+ 0 (str.indexof cmd " " 0)) 1) (- (str.len cmd) (+ (+ 0 (str.indexof cmd " " 0)) 1))) " " 0)) 1))) " " 0)) 1)))) 0))
(check-sat)
(get-value (cmd))
